(declare-fun temp934_1 () (_ BitVec 64))
(declare-fun var201290 () (_ BitVec 64))
(declare-fun var201292 () (_ BitVec 64))
(declare-fun temp934_2 () (_ BitVec 64))
(declare-fun var332362 () (_ BitVec 64))
(declare-fun var332364 () (_ BitVec 64))
(declare-fun temp934_3 () (_ BitVec 64))
(declare-fun var733184 () (_ BitVec 64))
(declare-fun k!0 () Bool)
(declare-fun ARGNAME_input_NAMEEND_DIM () (_ BitVec 64))
(declare-fun ARGNAME_dims_NAMEEND_LEN () (_ BitVec 64))
(declare-fun temp934_5 () (_ BitVec 64))
(declare-fun temp934_4 () (_ BitVec 64))
(declare-fun temp934_6 () (_ BitVec 64))
(declare-fun var987722 () (_ BitVec 64))
(declare-fun var987724 () (_ BitVec 64))
(declare-fun temp934_8 () (_ BitVec 64))
(declare-fun temp934_7 () (_ BitVec 64))
(declare-fun temp934_9 () (_ BitVec 64))
(declare-fun var1708618 () (_ BitVec 64))
(declare-fun var1708620 () (_ BitVec 64))
(declare-fun temp934_11 () (_ BitVec 64))
(declare-fun temp934_10 () (_ BitVec 64))
(declare-fun temp934_12 () (_ BitVec 64))
(declare-fun var3027502 () (_ BitVec 64))
(declare-fun var3224186 () (_ BitVec 64))
(declare-fun temp934_14 () (_ BitVec 64))
(declare-fun temp934_13 () (_ BitVec 64))
(declare-fun var3411266 () (_ BitVec 64))
(declare-fun temp934_15 () (_ BitVec 64))
(declare-fun temp934_16 () (_ BitVec 64))
(declare-fun var3476807 () (_ BitVec 64))
(declare-fun var3542354 () (_ BitVec 64))
(assert (= temp934_1 #x0000000000000005))
(assert (= var201290 temp934_1))
(assert (= var201292 var201290))
(assert (= temp934_2 #x0000000000000005))
(assert (= var332362 temp934_2))
(assert (= var332364 var332362))
(assert (= var733184
   (ite (= ARGNAME_input_NAMEEND_DIM ARGNAME_dims_NAMEEND_LEN)
        #x0000000000000001
        #x0000000000000000)))
(assert (= temp934_3 #x0000000000000001))
(assert (= var733184 temp934_3))
(assert (= temp934_5 #x0000000000000000))
(assert (= temp934_4 temp934_5))
(assert (= temp934_6 #x0000000000000005))
(assert (= var987722 temp934_6))
(assert (= var987724 var987722))
(assert (= temp934_8 #x0000000000000000))
(assert (= temp934_7 temp934_8))
(assert (= temp934_9 #x0000000000000005))
(assert (= var1708618 temp934_9))
(assert (= var1708620 var1708618))
(assert (= temp934_11 #x0000000000000000))
(assert (= temp934_10 temp934_11))
(assert (= temp934_12 #x0000000000000000))
(assert (= var3027502
   (ite (distinct temp934_10 temp934_12) #x0000000000000001 #x0000000000000000)))
(assert (= var3224186 var3027502))
(assert (= temp934_14 #x0000000000000000))
(assert (= temp934_13 temp934_14))
(assert (= var3411266
   (ite (bvslt temp934_13 ARGNAME_input_NAMEEND_DIM)
        #x0000000000000001
        #x0000000000000000)))
(assert (= temp934_15
   (ite (= var3411266 #x0000000000000001) ARGNAME_input_NAMEEND_DIM temp934_13)))
(assert (= temp934_16 #x0000000000000000))
(assert (= var3476807 temp934_16))
(assert (= var3542354 var3476807))
(model-add temp934_1 () (_ BitVec 64) #x0000000000000005)
(model-add var201290 () (_ BitVec 64) #x0000000000000005)
(model-add var201292 () (_ BitVec 64) #x0000000000000005)
(model-add temp934_2 () (_ BitVec 64) #x0000000000000005)
(model-add var332362 () (_ BitVec 64) #x0000000000000005)
(model-add var332364 () (_ BitVec 64) #x0000000000000005)
(model-add temp934_3 () (_ BitVec 64) #x0000000000000001)
(model-add var733184 () (_ BitVec 64) #x0000000000000001)
(model-del k!0)
(model-add ARGNAME_input_NAMEEND_DIM
           ()
           (_ BitVec 64)
           (ite k!0 ARGNAME_dims_NAMEEND_LEN (bvnot ARGNAME_dims_NAMEEND_LEN)))






